/*********************************************
 * OPL 12.6.0.0 Data
 * Author: Adrian Rodriguez Bazaga, Pau Rodriguez Esmerats
 * Creation Date: 01/12/2017 at 05:00:19
 *********************************************/

nNurses=955;
maxConsec=2;
maxPresence=7;
maxHours=5;
minHours=1;
demand= [194 196 271 293 196 271 293 204 199 116 19 28 26 38 32 30 19 21 13 10 136 285 155 215  ];
